============================[ Problem Statistics ]=============================|                                                                             ||  Number of variables:          4170                                         ||  Number of clauses:            9241                                         ||  Parse time:                   0.03 s                                       ||                                                                             |============================[ Search Statistics ]==============================| Conflicts |          ORIGINAL         |          LEARNT          | Progress ||           |    Vars  Clauses Literals |    Limit  Clauses Lit/Cl |          |==============================================================================================================================================================restarts              : 1conflicts             : 23             (676 /sec)decisions             : 117            (0.00 % random) (3441 /sec)propagations          : 8304           (244235 /sec)conflict literals     : 92             (16.36 % deleted)CPU time              : 0.034 sUNSATISFIABLE